letting maxWeight=83
letting values=[20, 19, 25, 6, 33, 24, 29, 35, 16, 32, 34, 34, 9, 1, 5, 29, 26, 36, 5, 27, 38, 9, 25, 14, 38, 20, 38, 31, 20, 34, 38, 33, 31, 15, 33, 13, 1, 27, 5, 9, 15, 13, 30, 34, 33, 26, 32, 35, 12, 20, 4, 35, 12, 17, 28, 23, 17, 35, 6, 26, 25, 9, 22, 19, 21, 9, 32]
letting weights=[12, 10, 11, 11, 15, 4, 11, 5, 12, 2, 17, 20, 14, 2, 14, 5, 18, 18, 15, 6, 12, 16, 6, 14, 5, 6, 21, 15, 8, 22, 17, 5, 2, 12, 1, 7, 25, 15, 20, 12, 6, 16, 1, 6, 8, 10, 17, 10, 24, 18, 12, 23, 9, 22, 1, 23, 1, 1, 15, 24, 7, 20, 10, 18, 14, 4, 13]
